/* Objective function */
min: 12 x1 + 14 x2 + 16 x3 + 18 x4 + 2 s1 + 2 s2 + 2 s3 + 2 s4 + 10 y1 + 12 y2 + 14 y3 + 16 y4;



/* Constraints */
0 <= x1 <= 200; 
0 <= x2 <= 200;
0 <= x3 <= 200;
0 <= x4 <= 200;

x1 + y1 - s1 = 150;
s1 + x2 + y2 - s2 = 200;
s2 + x3 + y3 - s3 = 250;
s3 + x4 + y4 - s4 = 150;

x1 - 200b1 >= 0;
x2 - 200b2 >= 0;
x3 - 200b3 >= 0;
x4 - 200b4 >= 0;


y1 - 50000b1 <= 0;
y2 - 50000b2 <= 0;
y3 - 50000b3 <= 0;
y4 - 50000b4 <= 0;

int b1, b2, b3, b4;